param N := 10;
param K1 := 2;
param K2 := 2;

param Preferences: 1 2 3 4 5 6 7 8 9 10 :=
  1  0 1 2 3 4 5 6 7 8 9 
  2  3 0 7 2 1 9 8 6 5 4 
  3  4 5 0 1 6 8 3 9 7 2 
  4  6 8 9 0 7 2 3 4 5 1 
  5  4 5 3 7 0 2 9 8 1 6 
  6  4 3 6 2 5 0 8 9 1 7 
  7  4 3 2 5 8 9 0 1 7 6 
  8  7 9 2 3 8 6 1 0 4 5 
  9  2 5 3 6 4 7 9 8 0 1 
  10 6 5 4 9 7 1 8 2 3 0;